50

98 9 312
96 24 299
95 12 288
94 19 436
92 23 413
89 23 450
88 9 333
88 5 323
87 16 422
87 14 413
86 11 271
85 16 284
83 1 403
80 16 353
80 8 264
77 15 351
76 2 349
76 7 379
73 22 377
72 19 385
71 11 279
69 7 288
69 19 425
69 9 442
57 17 382
57 12 424
53 11 259
50 14 417
45 10 372
45 8 330
44 5 425
44 13 414
43 3 424
42 9 338
37 1 350
36 4 273
36 10 154
35 6 425
35 5 446
34 3 297
33 6 193
31 2 224
30 4 294
27 7 393
24 5 158
24 3 78
23 5 253
21 3 359
20 4 375
20 2 303
